# Cost: 1390

# Tail Head Net
7500 7600 1
7600 7700 1
7700 7800 1
7800 7900 1
7900 8000 1
8000 8100 1
8100 8200 1
8200 8300 1
8300 8400 1
8400 8500 1
8500 8600 1
8600 8700 1
8700 8800 1
8800 8900 1
8900 9000 1
9000 9100 1
9100 9200 1
9200 9300 1
9300 9400 1
9400 9500 1
9500 9600 1
9600 9700 1
9700 9800 1
9800 9900 1
9899 9999 1
9900 9899 1
9922 9921 1
9923 9922 1
9924 9923 1
9925 9924 1
9926 9925 1
9927 9926 1
9928 9927 1
9929 9928 1
9930 9929 1
9931 9930 1
9932 9931 1
9933 9932 1
9934 9933 1
9935 9934 1
9936 9935 1
9937 9936 1
9938 9937 1
9939 9938 1
9940 9939 1
9941 9940 1
9942 9941 1
9943 9942 1
9944 9943 1
9945 9944 1
9946 9945 1
9947 9946 1
9948 9947 1
9949 9948 1
9950 9949 1
9951 9950 1
9952 9951 1
9953 9952 1
9954 9953 1
9955 9954 1
9956 9955 1
9957 9956 1
9958 9957 1
9959 9958 1
9960 9959 1
9961 9960 1
9962 9961 1
9963 9962 1
9964 9963 1
9965 9964 1
9966 9965 1
9967 9966 1
9968 9967 1
9969 9968 1
9970 9969 1
9971 9970 1
9972 9971 1
9973 9972 1
9974 9973 1
9975 9974 1
9976 9975 1
9977 9976 1
9978 9977 1
9979 9978 1
9980 9979 1
9981 9980 1
9982 9981 1
9983 9982 1
9984 9983 1
9985 9984 1
9986 9985 1
9987 9986 1
9988 9987 1
9989 9988 1
9990 9989 1
9991 9990 1
9992 9991 1
9993 9992 1
9994 9993 1
9995 9994 1
9996 9995 1
9997 9996 1
9998 9997 1
9999 9998 1
2001 1901 2
2002 2001 2
2102 2002 2
2202 2102 2
2302 2202 2
2402 2302 2
2502 2402 2
2602 2502 2
2702 2602 2
2802 2702 2
2902 2802 2
3002 2902 2
3102 3002 2
3202 3102 2
3302 3202 2
3402 3302 2
3502 3402 2
3602 3502 2
3702 3602 2
3802 3702 2
3902 3802 2
4002 3902 2
4102 4002 2
4202 4102 2
4302 4202 2
4402 4302 2
4502 4402 2
4602 4502 2
4702 4602 2
4802 4702 2
4902 4802 2
5002 4902 2
5102 5002 2
5202 5102 2
5302 5202 2
5402 5302 2
5502 5402 2
5602 5502 2
5702 5602 2
5802 5702 2
5902 5802 2
6002 5902 2
6102 6002 2
6192 6193 2
6193 6194 2
6194 6195 2
6195 6196 2
6196 6197 2
6197 6198 2
6198 6199 2
6199 6200 2
6202 6102 2
16113 16114 2
16114 16115 2
16115 16116 2
16116 16117 2
16117 16118 2
16118 16119 2
16119 16120 2
16120 16121 2
16121 16122 2
16122 16123 2
16123 16124 2
16124 16125 2
16125 16126 2
16126 16127 2
16127 16128 2
16128 16129 2
16129 16130 2
16130 16131 2
16131 16132 2
16132 16133 2
16133 16134 2
16134 16135 2
16135 16136 2
16136 16137 2
16137 16138 2
16138 16139 2
16139 16140 2
16140 16141 2
16141 16142 2
16142 16143 2
16143 16144 2
16144 16145 2
16145 16146 2
16146 16147 2
16147 16148 2
16148 16149 2
16149 16150 2
16150 16151 2
16151 16152 2
16152 16153 2
16153 16154 2
16154 16155 2
16155 16156 2
16156 16157 2
16157 16158 2
16158 16159 2
16159 16160 2
16160 16161 2
16161 16162 2
16162 16163 2
16163 16164 2
16164 16165 2
16165 16166 2
16166 16167 2
16167 16168 2
16168 16169 2
16169 16170 2
16170 16171 2
16171 16172 2
16172 16173 2
16173 16174 2
16174 16175 2
16175 16176 2
16176 16177 2
16177 16178 2
16178 16179 2
16179 16180 2
16180 16181 2
16181 16182 2
16182 16183 2
16183 16184 2
16184 16185 2
16185 16186 2
16186 16187 2
16187 16188 2
16188 16189 2
16189 16190 2
16190 16191 2
16191 16192 2
16192 6192 2
6302 6202 2
16213 16113 2
6402 6302 2
6402 16402 2
16307 16308 2
16308 16309 2
16309 16310 2
16310 16311 2
16311 16312 2
16312 16313 2
16313 16213 2
6502 6402 2
16402 16403 2
16403 16404 2
16404 16405 2
16405 16406 2
16406 16407 2
16407 16307 2
6602 6502 2
6702 6602 2
6802 6702 2
6902 6802 2
7002 6902 2
7102 7002 2
7202 7102 2
7302 7202 2
7402 7302 2
7502 7402 2
7602 7502 2
7702 7602 2
7802 7702 2
7902 7802 2
8002 7902 2
8102 8002 2
8202 8102 2
8302 8202 2
8402 8302 2
8502 8402 2
8602 8502 2
8702 8602 2
8802 8702 2
8902 8802 2
9002 8902 2
9102 9002 2
9202 9102 2
9302 9202 2
9402 9302 2
9502 9402 2
9602 9502 2
9702 9602 2
9802 9702 2
9902 9802 2
9902 9903 2
9903 9904 2
9904 9905 2
9905 9906 2
9906 9907 2
9907 9908 2
9908 9909 2
9909 9910 2
9910 9911 2
9911 9912 2
2301 2401 3
2303 12303 3
2304 2303 3
2305 2304 3
2306 2305 3
2307 2306 3
2308 2307 3
2309 2308 3
2310 2309 3
2311 2310 3
2312 2311 3
2313 2312 3
2314 2313 3
2315 2314 3
2316 2315 3
2317 2316 3
2318 2317 3
2319 2318 3
2320 2319 3
2321 2320 3
2322 2321 3
2323 2322 3
2324 2323 3
2325 2324 3
2326 2325 3
2327 2326 3
2328 2327 3
2329 2328 3
2330 2329 3
2331 2330 3
2332 2331 3
2333 2332 3
2334 2333 3
2335 2334 3
2336 2335 3
2337 2336 3
2338 2337 3
2339 2338 3
2340 2339 3
2341 2340 3
2342 2341 3
2343 2342 3
2344 2343 3
2345 2344 3
2346 2345 3
2347 2346 3
2348 2347 3
2349 2348 3
2350 2349 3
2351 2350 3
2352 2351 3
2353 2352 3
2354 2353 3
2355 2354 3
2356 2355 3
2357 2356 3
2358 2357 3
2359 2358 3
2360 2359 3
2361 2360 3
2362 2361 3
2363 2362 3
2364 2363 3
2365 2364 3
2366 2365 3
2367 2366 3
2368 2367 3
2369 2368 3
2370 2369 3
2371 2370 3
2372 2371 3
2373 2372 3
2374 2373 3
2375 2374 3
2376 2375 3
2377 2376 3
2378 2377 3
2379 2378 3
2380 2379 3
2381 2380 3
2382 2381 3
2383 2382 3
2384 2383 3
2385 2384 3
2386 2385 3
2387 2386 3
2388 2387 3
2389 2388 3
2390 2389 3
2391 2390 3
2392 2391 3
2393 2392 3
2394 2393 3
2395 2394 3
2396 2395 3
2397 2396 3
2398 2397 3
2399 2398 3
2400 2399 3
2400 2500 3
2401 2501 3
12301 2301 3
12302 12301 3
12303 12302 3
2500 2600 3
2501 2601 3
2600 2700 3
2601 2701 3
2700 2800 3
2701 2801 3
2800 2900 3
2801 2901 3
2900 3000 3
2901 3001 3
3000 3100 3
3001 3101 3
3100 3200 3
3101 3201 3
3200 3300 3
3201 3301 3
3301 3401 3
3401 3501 3
3501 3601 3
3601 3701 3
3701 3801 3
114  14 4
214 114 4
314 214 4
414 314 4
514 414 4
614 514 4
714 614 4
814 714 4
914 814 4
1014 914 4
1114 1014 4
1214 1114 4
1314 1214 4
1414 1314 4
1514 1414 4
1614 1514 4
1714 1614 4
1814 1714 4
1914 1814 4
2014 1914 4
2104 12104 4
2105 2104 4
2106 2105 4
2107 2106 4
2108 2107 4
2109 2108 4
2110 2109 4
2111 2110 4
2112 2111 4
2113 2112 4
2114 2014 4
2114 2113 4
2115 2114 4
2116 2115 4
2117 2116 4
2118 2117 4
2119 2118 4
2120 2119 4
2121 2120 4
2122 2121 4
2123 2122 4
2124 2123 4
2125 2124 4
2126 2125 4
2127 2126 4
2128 2127 4
2129 2128 4
2130 2129 4
2131 2130 4
2132 2131 4
2133 2132 4
2134 2133 4
2135 2134 4
2136 2135 4
2137 2136 4
2138 2137 4
2139 2138 4
2140 2139 4
2141 2140 4
2142 2141 4
2143 2142 4
2144 2143 4
2145 2144 4
2146 2145 4
2147 2146 4
2148 2147 4
2149 2148 4
2150 2149 4
2151 2150 4
2152 2151 4
2153 2152 4
2154 2153 4
2155 2154 4
2156 2155 4
2157 2156 4
2158 2157 4
2159 2158 4
2160 2159 4
2161 2160 4
2162 2161 4
2163 2162 4
2164 2163 4
2165 2164 4
2166 2165 4
2167 2166 4
2168 2167 4
2169 2168 4
2170 2169 4
2171 2170 4
2172 2171 4
2173 2172 4
2174 2173 4
2175 2174 4
2176 2175 4
2177 2176 4
2178 2177 4
2179 2178 4
2180 2179 4
2181 2180 4
2182 2181 4
2183 2182 4
2184 2183 4
2185 2184 4
2186 2185 4
2187 2186 4
2188 2187 4
2189 2188 4
2190 2189 4
2191 2190 4
2192 2191 4
2193 2192 4
2194 2193 4
2195 2194 4
2196 2195 4
2197 2196 4
2198 2197 4
2199 2198 4
2200 2199 4
12101 2101 4
12102 12101 4
12103 12102 4
12104 12103 4
4901 5001 5
5001 5101 5
5101 5201 5
5201 5301 5
5301 5401 5
5401 5501 5
5501 5601 5
5601 5701 5
5701 5801 5
5801 5901 5
5901 6001 5
6001 6101 5
6101 6201 5
 22  23 6
 23  24 6
 24  25 6
 25  26 6
 26  27 6
 27  28 6
 28  29 6
 29  30 6
 30  31 6
 31  32 6
 32  33 6
 33  34 6
 34  35 6
 35  36 6
 36  37 6
 37  38 6
 38 138 6
138 238 6
238 338 6
338 438 6
438 538 6
538 638 6
638 738 6
738 838 6
838 938 6
938 1038 6
1038 1138 6
1138 1238 6
1238 1239 6
1239 1240 6
1240 1241 6
1241 1242 6
1242 1243 6
1243 1244 6
1244 1245 6
1245 1246 6
1246 1247 6
1247 1248 6
1248 1249 6
1249 1250 6
1250 1251 6
1251 1252 6
1252 1253 6
1253 1254 6
1254 1255 6
1255 1256 6
1256 1257 6
1257 1258 6
1258 1259 6
1259 1260 6
1260 1261 6
1261 1262 6
1262 1263 6
1263 1264 6
1264 1265 6
1265 1266 6
1266 1267 6
1267 1268 6
1268 1269 6
1269 1270 6
1270 1271 6
1271 1272 6
1272 1273 6
1273 1274 6
1274 1275 6
1275 1276 6
1276 1277 6
1277 1278 6
1278 1279 6
1279 1280 6
1280 1281 6
1281 1282 6
1282 1283 6
1283 1284 6
1284 1285 6
1285 1286 6
1286 1287 6
1287 1288 6
1288 1289 6
1289 1290 6
1290 1291 6
1291 1292 6
1292 1293 6
1293 1294 6
1294 1295 6
1295 1296 6
1296 1297 6
1297 1298 6
1298 1299 6
1299 1300 6
10084 10184 7
10085 10084 7
10086 10085 7
10087 10086 7
 89 10089 7
10088 10087 7
 90  89 7
10089 10088 7
10171 10271 7
10172 10171 7
10173 10172 7
10174 10173 7
10175 10174 7
10176 10175 7
10177 10176 7
10178 10177 7
10179 10178 7
10180 10179 7
10181 10180 7
10182 10181 7
10183 10182 7
10184 10183 7
10271 10371 7
10369 10469 7
10370 10369 7
10371 10370 7
10468 10568 7
10469 10468 7
10565 10665 7
10566 10565 7
10567 10566 7
10568 10567 7
10664 10764 7
10665 10664 7
10739 10839 7
10740 10739 7
10741 10740 7
10742 10741 7
10743 10742 7
10744 10743 7
10745 10744 7
10746 10745 7
10747 10746 7
10748 10747 7
10749 10748 7
10750 10749 7
10751 10750 7
10752 10751 7
10753 10752 7
10754 10753 7
10755 10754 7
10756 10755 7
10757 10756 7
10758 10757 7
10759 10758 7
10760 10759 7
10761 10760 7
10762 10761 7
10763 10762 7
10764 10763 7
10839 10939 7
10939 11039 7
11038 11138 7
11039 11038 7
11138 11238 7
11238 11338 7
11337 11437 7
11338 11337 7
11437 11537 7
11537 11637 7
11637 11737 7
11737 11837 7
11837 11937 7
11937 12037 7
12037 12137 7
12137 12237 7
12236 12336 7
12237 12236 7
12335 12435 7
12336 12335 7
12435 12535 7
12534 12634 7
12535 12534 7
12634 12734 7
12732 12832 7
12733 12732 7
12734 12733 7
12832 12932 7
12930 13030 7
12931 12930 7
12932 12931 7
13030 13130 7
13130 13230 7
13228 13328 7
13229 13228 7
13230 13229 7
13328 13428 7
13428 13528 7
13526 13626 7
13527 13526 7
13528 13527 7
13626 13726 7
13726 13826 7
13824 13924 7
13825 13824 7
13826 13825 7
13924 14024 7
14024 14124 7
14124 14224 7
14223 14323 7
14224 14223 7
14321 14421 7
14322 14321 7
14323 14322 7
14421 14521 7
14521 14621 7
14621 14721 7
14721 14821 7
14821 14921 7
14921 15021 7
15021 15121 7
15121 15221 7
15221 15321 7
15321 15421 7
15421 15521 7
15521 15621 7
15621 15721 7
15720 15820 7
15721 15720 7
5917 6017 7
5918 5917 7
15820 15920 7
6017 6117 7
15918 5918 7
15919 15918 7
15920 15919 7
6117 6217 7
6217 6317 7
6317 6417 7
6417 6517 7
6517 6617 7
6617 6717 7
6717 6817 7
6817 6917 7
6917 7017 7
7017 7117 7
7117 7217 7
7217 7317 7
7317 7417 7
7404 17404 7
7405 7404 7
7406 7405 7
7407 7406 7
7408 7407 7
7409 7408 7
7410 7409 7
7411 7410 7
7412 7411 7
7413 7412 7
7414 7413 7
7415 7414 7
7416 7415 7
7417 7416 7
7417 7517 7
17401 7401 7
17402 17401 7
17403 17402 7
17404 17403 7
7517 7617 7
7617 7717 7
7717 7817 7
7817 7917 7
7917 8017 7
8017 8117 7
8117 8217 7
8217 8317 7
8317 8417 7
8417 8517 7
8517 8617 7
8617 8717 7
8717 8817 7
8817 8917 7
8917 9017 7
9017 9117 7
9117 9217 7
9217 9317 7
9317 9417 7
9417 9517 7
9517 9617 7
9617 9717 7
9717 9817 7
9817 9917 7
1700 11700 8
11700 11800 8
11800 11900 8
11900 12000 8
12000 12100 8
12100 12200 8
12200 12300 8
12300 12400 8
12400 12500 8
12500 12600 8
12600 12700 8
12700 12800 8
12800 12900 8
12900 13000 8
13000 13100 8
13100 13200 8
13200 13300 8
13300 13400 8
13400 13500 8
13500 13600 8
13600 13700 8
13700 13800 8
13800 13900 8
13900 14000 8
14000 14100 8
14100 14200 8
14200 14300 8
14300 14400 8
14400 14500 8
14500 14600 8
14600 14700 8
14700 14800 8
14800 14900 8
14900 15000 8
15000 15100 8
15100 15200 8
15200 15300 8
15300 15400 8
15400 15500 8
15500 15600 8
15600 15700 8
15700 15800 8
15800 15900 8
15900 16000 8
16000 16100 8
16100 16200 8
16200 16300 8
16300 16400 8
16400 16500 8
16500 16600 8
16600 16700 8
16700 16800 8
16800 16900 8
16900 17000 8
17000 17100 8
17100 17200 8
7201 7301 8
17200 17300 8
17201 7201 8
17202 17201 8
17203 17202 8
17204 17203 8
17205 17204 8
17206 17205 8
17207 17206 8
17208 17207 8
17209 17208 8
17210 17209 8
17211 17210 8
17212 17211 8
17213 17212 8
17214 17213 8
17215 17214 8
17216 17215 8
17217 17216 8
17218 17217 8
17219 17218 8
17220 17219 8
17221 17220 8
17222 17221 8
17223 17222 8
17224 17223 8
17225 17224 8
17226 17225 8
17227 17226 8
17228 17227 8
17229 17228 8
17230 17229 8
17231 17230 8
17232 17231 8
17233 17232 8
17234 17233 8
17235 17234 8
17236 17235 8
17237 17236 8
17238 17237 8
17239 17238 8
17240 17239 8
17241 17240 8
17242 17241 8
17243 17242 8
17244 17243 8
17245 17244 8
17246 17245 8
17247 17246 8
17248 17247 8
17249 17248 8
17250 17249 8
17251 17250 8
17252 17251 8
17253 17252 8
17254 17253 8
17255 17254 8
17256 17255 8
17257 17256 8
17258 17257 8
17259 17258 8
17260 17259 8
17261 17260 8
17262 17261 8
17263 17262 8
17264 17263 8
17265 17264 8
17266 17265 8
17267 17266 8
17268 17267 8
17269 17268 8
17270 17269 8
17271 17270 8
17272 17271 8
17273 17272 8
17274 17273 8
17275 17274 8
17276 17275 8
17277 17276 8
17278 17277 8
17279 17278 8
17280 17279 8
17281 17280 8
17282 17281 8
17283 17282 8
17284 17283 8
17285 17284 8
17286 17285 8
17287 17286 8
17288 17287 8
17289 17288 8
17290 17289 8
17291 17290 8
17292 17291 8
17293 17292 8
17294 17293 8
17295 17294 8
17296 17295 8
17297 17296 8
17298 17297 8
17299 17298 8
17300 7300 8
17300 17299 8
 69 169 9
169 269 9
269 369 9
369 370 9
370 371 9
371 372 9
372 373 9
373 374 9
374 375 9
375 475 9
475 476 9
476 477 9
477 478 9
478 578 9
578 579 9
579 580 9
580 581 9
581 582 9
582 583 9
583 683 9
683 684 9
684 685 9
685 785 9
785 885 9
885 886 9
886 887 9
887 888 9
888 889 9
889 890 9
890 990 9
990 1090 9
1090 1091 9
1091 1092 9
1092 1093 9
1093 1094 9
1094 1095 9
1095 1096 9
1096 1097 9
1097 1098 9
1098 1099 9
1099 1100 9
601 10601 10
10601 10701 10
10701 10801 10
10801 10901 10
10901 11001 10
11001 11101 10
11101 11201 10
11201 11202 10
11202 11203 10
11203 11204 10
11204 11205 10
11205 11206 10
11206 11207 10
11207 11208 10
11208 11209 10
11209 11210 10
11210 11211 10
11211 11212 10
11212 11213 10
11213 11214 10
11214 11215 10
11215 11216 10
11216 11217 10
11217 11218 10
11218 11219 10
11219 11220 10
11220 11221 10
11221 11222 10
11222 11223 10
11223 11224 10
11224 11225 10
11225 11226 10
11226 11227 10
11227 11228 10
11228 11229 10
11229 11230 10
11230 11231 10
11231 11232 10
11232 11233 10
11233 11234 10
11234 11235 10
11235 11236 10
1336 1337 10
11236 11336 10
1337 1338 10
1338 1339 10
1339 1340 10
1340 1341 10
1341 1342 10
1342 1343 10
1343 1344 10
1344 1345 10
1345 1346 10
1346 1347 10
1347 1348 10
1348 1349 10
1349 1350 10
1350 1351 10
1351 1352 10
1352 1353 10
1353 1354 10
1354 1355 10
1355 1356 10
1356 1357 10
1357 1358 10
1358 1359 10
1359 1360 10
1360 1361 10
1361 1362 10
1362 1363 10
1363 1364 10
1364 1365 10
1365 1366 10
1366 1367 10
1367 1368 10
1368 1369 10
1369 1370 10
1370 1371 10
1371 1372 10
1372 1373 10
1373 1374 10
1374 1375 10
1375 1376 10
1376 1377 10
1377 1378 10
1378 1379 10
1379 1380 10
1380 1381 10
1381 1382 10
1382 1383 10
1383 1384 10
1384 1385 10
1385 1386 10
1386 1387 10
1387 1388 10
1388 1389 10
1389 1390 10
1390 1391 10
1391 1392 10
1392 1393 10
1393 1394 10
1394 1395 10
1395 1396 10
1396 1397 10
1397 1398 10
1398 1399 10
1399 1400 10
11336 1336 10
4801 4701 11
14801 4801 11
14901 14801 11
15001 14901 11
15101 15001 11
15201 15101 11
15301 15201 11
15401 15301 11
15501 15401 11
15601 15501 11
15701 15601 11
15801 15701 11
15901 15801 11
16001 15901 11
16101 16001 11
16201 16101 11
16301 16201 11
16401 16301 11
16501 16401 11
16601 16501 11
16602 16601 11
16603 16602 11
16604 16603 11
16605 16604 11
16606 16605 11
16607 16606 11
16608 16607 11
16609 16608 11
16610 16609 11
16611 16610 11
16612 16611 11
16613 16612 11
16614 16613 11
16615 16614 11
16616 16615 11
16617 16616 11
16618 16617 11
16619 16618 11
16620 16619 11
16621 16620 11
16622 16621 11
16623 16622 11
16624 16623 11
16625 16624 11
16626 16625 11
16627 16626 11
16628 16627 11
16629 16628 11
16630 16629 11
16631 16630 11
16632 16631 11
16633 16632 11
16634 16633 11
16635 16634 11
16636 16635 11
16637 16636 11
16638 16637 11
16639 16638 11
16640 16639 11
16641 16640 11
16642 16641 11
16643 16642 11
16644 16643 11
16645 16644 11
16646 16645 11
16647 16646 11
16648 16647 11
16649 16648 11
16650 16649 11
16651 16650 11
16652 16651 11
16653 16652 11
16654 16653 11
16655 16654 11
16656 16655 11
16657 16656 11
16658 16657 11
16659 16658 11
16660 16659 11
16661 16660 11
16662 16661 11
16663 16662 11
16664 16663 11
16665 16664 11
16666 16665 11
16667 16666 11
16668 16667 11
16669 16668 11
16670 16669 11
16671 16670 11
16672 16671 11
16673 16672 11
16674 16673 11
16675 16674 11
16676 16675 11
16677 16676 11
16678 16677 11
16679 16678 11
16680 16679 11
16681 16680 11
16682 16681 11
16683 16682 11
16684 16683 11
16685 16684 11
16686 16685 11
16687 16686 11
16688 16687 11
16689 16688 11
16690 16689 11
16691 16690 11
16692 16691 11
16693 16692 11
16694 16693 11
16695 16694 11
16696 16695 11
16697 16696 11
16698 16697 11
16798 16698 11
16898 16798 11
16899 16898 11
16999 16899 11
7199 17199 11
17099 16999 11
7299 7199 11
17199 17099 11
7399 7299 11
7400 7399 11
 78  77 12
4001 3901 13
4101 4001 13
4201 4101 13
4301 4201 13
4401 4301 13
4501 4401 13
4601 4501 13
14601 4601 13
14701 14601 13
6701 16701 13
6801 6701 13
16701 26701 13
6901 6801 13
7001 6901 13
24701 14701 13
24801 24701 13
24901 24801 13
25001 24901 13
25101 25001 13
25201 25101 13
25301 25201 13
25401 25301 13
25501 25401 13
25601 25501 13
25701 25601 13
25801 25701 13
25901 25801 13
26001 25901 13
26101 26001 13
26201 26101 13
26301 26201 13
26401 26301 13
26501 26401 13
26601 26501 13
26701 26601 13
171 271 14
 73 173 14
172 171 14
 74  73 14
173 172 14
270 10270 14
271 270 14
10268 10368 14
10269 10268 14
10270 10269 14
10367 10467 14
10368 10367 14
10401 401 14
10402 10401 14
10403 10402 14
10404 10403 14
10405 10404 14
10406 10405 14
10407 10406 14
10408 10407 14
10409 10408 14
10410 10409 14
10411 10410 14
10412 10411 14
10413 10412 14
10414 10413 14
10415 10414 14
10416 10415 14
10417 10416 14
10418 10417 14
10419 10418 14
10420 10419 14
10421 10420 14
10422 10421 14
10423 10422 14
10424 10423 14
10425 10424 14
10426 10425 14
10427 10426 14
10428 10427 14
10429 10428 14
10430 10429 14
10431 10430 14
10432 10431 14
10433 10432 14
10434 10433 14
10435 10434 14
10436 10435 14
10437 10436 14
10438 10437 14
10439 10438 14
10440 10439 14
10441 10440 14
10442 10441 14
10443 10442 14
10444 10443 14
10445 10444 14
10446 10445 14
10447 10446 14
10448 10447 14
10449 10448 14
10450 10449 14
10451 10450 14
10452 10451 14
10453 10452 14
10454 10453 14
10455 10454 14
10456 10455 14
10457 10456 14
10458 10457 14
10459 10458 14
10460 10459 14
10461 10460 14
10462 10461 14
10463 10462 14
10464 10463 14
10465 10464 14
10466 10465 14
10467 10466 14
